id: 1014
name: atlanta-ip
group: miplib2010
method: 1

Gurobi 7.0.2 (linux64, Matlab) logging started Thu Apr 19 15:58:31 2018


Gurobi 7.0.2 (linux64) logging started Thu Apr 19 15:58:31 2018

Optimize a model with 21732 rows, 48738 columns and 257532 nonzeros
Coefficient statistics:
  Matrix range     [3e-02, 6e+01]
  Objective range  [1e-06, 2e+01]
  Bounds range     [1e+00, 2e+09]
  RHS range        [1e-01, 1e+05]
Warning: Model contains large bounds
         Consider reformulating model or setting NumericFocus parameter
         to avoid numerical issues.
Presolve removed 1948 rows and 31342 columns
Presolve time: 0.07s
Presolved: 19784 rows, 17396 columns, 182628 nonzeros

Iteration    Objective       Primal Inf.    Dual Inf.      Time
       0    1.1003557e+01   1.349572e+03   0.000000e+00      0s
   21200    8.0727629e+01   5.037942e+03   0.000000e+00      5s
   26213    8.1243201e+01   0.000000e+00   0.000000e+00      7s

Solved in 26213 iterations and 6.56 seconds
Optimal objective  8.124320142e+01
status: OPTIMAL
